c t mc
c file mc2022_track1_039.cnf
p cnf 120 640
29 -94 44 42 -28 0
-53 -114 -8 -49 38 0
-59 -18 -22 45 89 0
-74 -36 66 59 18 0
42 28 -119 58 -4 0
53 114 8 -49 -38 0
-70 33 -117 -15 -109 0
69 16 52 55 -118 0
49 -38 1 31 77 0
97 41 85 -32 -3 0
-53 -114 8 49 38 0
-90 -50 27 25 6 0
-97 -41 -85 -32 3 0
34 -78 106 -17 48 0
-55 -118 72 54 21 0
-53 114 8 -49 38 0
86 -82 -40 -29 -94 0
-115 68 -71 -10 84 0
56 107 -88 -97 41 0
-12 99 2 104 11 0
-23 -64 76 -91 -7 0
-42 -28 119 -58 -4 0
-19 116 -47 96 108 0
83 -5 -57 -87 110 0
-25 6 -79 -43 39 0
-31 77 100 -56 107 0
32 -3 81 74 36 0
45 89 -51 -19 116 0
-49 38 -1 31 -77 0
17 -48 112 -95 -93 0
31 77 -100 -56 107 0
54 -21 65 -9 -37 0
-54 -21 -65 -9 -37 0
-10 84 14 73 -101 0
23 -64 76 91 -7 0
95 -93 -46 -115 68 0
15 -109 24 -20 75 0
45 89 51 -19 -116 0
59 18 -22 45 89 0
95 -93 46 -115 -68 0
-42 28 -119 -58 -4 0
104 -11 -60 -86 -82 0
17 48 112 -95 93 0
-74 -36 -66 -59 18 0
10 -84 14 -73 101 0
-43 39 -105 70 33 0
-70 33 117 -15 109 0
-56 107 88 -97 41 0
-34 78 -106 -17 -48 0
42 -28 119 -58 4 0
53 -114 8 -49 38 0
23 -64 76 -91 7 0
42 28 119 -58 -4 0
-31 -77 -100 -56 107 0
15 -109 24 20 -75 0
10 -84 -14 -73 -101 0
-30 -63 98 -69 16 0
56 107 -88 97 -41 0
-15 109 -24 -20 -75 0
56 107 88 -97 -41 0
9 37 -35 34 78 0
-31 77 100 56 -107 0
-97 41 -85 -32 -3 0
-53 -114 8 -49 -38 0
-97 41 85 32 -3 0
-56 107 -88 -97 -41 0
91 -7 -80 -12 99 0
-87 -110 -62 -53 114 0
34 -78 -106 -17 -48 0
-111 -67 -26 30 63 0
73 101 -13 92 -120 0
-69 16 52 -55 -118 0
-19 116 47 -96 108 0
-32 -3 81 74 -36 0
25 6 79 -43 39 0
69 16 -52 -55 -118 0
9 -37 -35 34 -78 0
91 -7 80 12 99 0
29 94 44 -42 -28 0
104 11 -60 86 -82 0
58 4 103 -111 -67 0
58 -4 -103 111 67 0
-20 75 -102 23 64 0
-54 -21 65 -9 37 0
-34 78 106 17 -48 0
-86 82 40 -29 94 0
54 21 65 -9 37 0
111 -67 26 -30 -63 0
-30 -63 98 69 -16 0
58 -4 103 111 -67 0
-96 108 61 -90 -50 0
-10 84 14 -73 101 0
30 63 -98 -69 -16 0
-56 -107 -88 97 -41 0
42 28 119 58 4 0
59 -18 -22 -45 89 0
49 38 1 31 -77 0
-96 108 -61 90 -50 0
10 -84 14 73 -101 0
90 -50 -27 25 6 0
29 -94 -44 -42 -28 0
83 5 57 -87 110 0
23 -64 -76 91 7 0
-83 5 -57 87 -110 0
59 -18 22 45 89 0
59 18 22 45 -89 0
25 -6 -79 -43 39 0
111 67 26 30 -63 0
73 -101 13 92 -120 0
-91 7 -80 -12 99 0
74 36 -66 59 -18 0
-92 -120 113 -83 -5 0
-69 -16 52 55 -118 0
-12 -99 -2 104 11 0
91 -7 80 -12 -99 0
17 48 -112 95 93 0
-115 -68 -71 -10 -84 0
-55 118 72 54 -21 0
-15 -109 -24 20 -75 0
-58 4 -103 -111 -67 0
-56 -107 88 -97 -41 0
31 -77 -100 -56 -107 0
97 -41 85 -32 3 0
-34 78 -106 17 48 0
73 101 -13 -92 120 0
104 -11 60 86 -82 0
87 110 -62 53 -114 0
-19 -116 47 96 108 0
-95 93 46 -115 -68 0
29 -94 44 -42 28 0
53 -114 8 49 -38 0
96 -108 -61 -90 50 0
-96 -108 -61 -90 -50 0
58 -4 103 -111 67 0
-9 37 -35 34 -78 0
-55 118 72 -54 21 0
-54 21 -65 -9 37 0
30 -63 -98 69 -16 0
92 -120 -113 -83 -5 0
45 89 51 19 116 0
-91 -7 -80 -12 -99 0
-53 -114 -8 49 -38 0
-43 39 105 -70 33 0
-96 -108 61 90 -50 0
74 36 -66 -59 18 0
30 63 98 69 -16 0
49 -38 -1 -31 77 0
70 -33 -117 15 109 0
-10 -84 -14 -73 101 0
-96 -108 -61 90 50 0
-45 -89 -51 19 -116 0
59 18 22 -45 89 0
-9 37 35 34 78 0
-15 -109 -24 -20 75 0
95 93 46 115 -68 0
-96 108 -61 -90 50 0
-92 -120 113 83 5 0
69 -16 -52 -55 118 0
20 -75 -102 23 64 0
49 -38 -1 31 -77 0
-34 -78 106 -17 -48 0
-95 93 46 115 68 0
70 -33 117 15 -109 0
-9 -37 35 -34 78 0
-43 -39 105 70 33 0
34 78 -106 17 -48 0
12 -99 2 104 11 0
-54 -21 -65 9 37 0
96 108 -61 90 50 0
-54 21 65 -9 -37 0
-115 -68 71 10 -84 0
92 -120 113 83 -5 0
-59 -18 22 45 -89 0
-95 -93 -46 115 68 0
86 -82 -40 29 94 0
-56 -107 -88 -97 41 0
87 -110 -62 -53 -114 0
92 120 113 -83 -5 0
-29 -94 -44 42 -28 0
55 118 72 54 21 0
96 108 61 90 -50 0
-30 63 -98 69 -16 0
-29 94 -44 42 28 0
-73 -101 -13 92 -120 0
20 -75 102 -23 64 0
111 -67 -26 30 -63 0
25 -6 79 43 39 0
-49 38 -1 -31 77 0
-12 -99 2 104 -11 0
32 3 81 -74 36 0
83 -5 57 87 110 0
32 3 -81 74 36 0
-104 11 60 86 -82 0
86 82 -40 -29 94 0
54 -21 -65 -9 37 0
55 -118 72 54 -21 0
-43 39 -105 -70 -33 0
56 -107 88 97 -41 0
-55 -118 72 -54 -21 0
-69 16 -52 -55 118 0
15 -109 -24 20 75 0
20 75 -102 23 -64 0
-86 82 -40 -29 -94 0
-9 37 35 -34 -78 0
90 50 27 -25 -6 0
58 4 103 111 67 0
-45 -89 51 19 116 0
17 48 112 95 -93 0
-83 -5 57 87 -110 0
-95 -93 46 115 -68 0
42 28 -119 -58 4 0
69 -16 52 55 118 0
31 77 -100 56 -107 0
-20 -75 -102 23 -64 0
-86 82 40 29 -94 0
53 114 -8 -49 38 0
-74 -36 66 -59 -18 0
-87 -110 62 53 114 0
-20 -75 102 -23 -64 0
-53 114 8 49 -38 0
-10 -84 14 -73 -101 0
-70 -33 -117 -15 109 0
9 37 35 34 -78 0
-15 -109 24 20 75 0
-73 -101 13 -92 -120 0
-45 89 51 -19 116 0
-56 -107 88 97 41 0
74 -36 -66 -59 -18 0
-74 36 -66 -59 -18 0
-83 -5 -57 -87 -110 0
-95 -93 46 -115 68 0
54 -21 65 9 37 0
19 -116 -47 -96 -108 0
-10 -84 -14 73 -101 0
-104 11 -60 86 82 0
115 -68 -71 10 -84 0
17 48 -112 -95 -93 0
111 67 -26 -30 -63 0
74 -36 66 59 -18 0
-53 114 -8 49 38 0
-58 -4 103 -111 -67 0
-34 -78 -106 17 -48 0
-42 28 -119 58 4 0
-45 89 -51 19 116 0
-115 -68 71 -10 84 0
92 -120 -113 83 5 0
43 -39 -105 70 33 0
34 78 -106 -17 48 0
-43 39 105 70 -33 0
19 116 47 96 108 0
-19 116 47 96 -108 0
-9 -37 -35 -34 -78 0
9 -37 35 -34 -78 0
-97 -41 -85 32 -3 0
15 109 24 -20 -75 0
-25 -6 79 43 -39 0
-86 82 -40 29 94 0
54 21 65 9 -37 0
12 -99 -2 104 -11 0
32 -3 -81 74 -36 0
-69 -16 52 -55 118 0
32 3 81 74 -36 0
73 -101 -13 -92 -120 0
96 -108 61 -90 -50 0
49 38 1 -31 77 0
-58 4 -103 111 67 0
70 33 117 -15 -109 0
69 16 -52 55 118 0
115 -68 -71 -10 84 0
73 101 13 -92 -120 0
-92 120 113 -83 5 0
69 16 52 -55 118 0
-25 -6 79 -43 39 0
-9 -37 -35 34 78 0
90 -50 -27 -25 -6 0
-31 -77 -100 56 -107 0
-19 -116 47 -96 -108 0
115 68 71 10 -84 0
95 93 46 -115 68 0
-73 101 13 92 -120 0
92 120 -113 83 -5 0
-69 16 -52 55 -118 0
-69 -16 -52 -55 -118 0
54 -21 -65 9 -37 0
-31 -77 100 56 107 0
-20 -75 102 23 64 0
45 -89 51 -19 116 0
55 -118 -72 54 21 0
-30 63 -98 -69 16 0
-20 75 102 -23 64 0
-43 -39 -105 70 -33 0
25 -6 79 -43 -39 0
-92 -120 -113 83 -5 0
34 78 106 -17 -48 0
43 -39 105 70 -33 0
43 -39 105 -70 33 0
70 -33 -117 -15 -109 0
53 114 -8 49 -38 0
-73 101 13 -92 120 0
20 -75 -102 -23 -64 0
-58 4 103 111 -67 0
43 39 -105 -70 33 0
97 -41 85 32 -3 0
34 -78 -106 17 48 0
20 75 102 23 64 0
55 -118 -72 -54 -21 0
-42 28 119 58 -4 0
-87 -110 62 -53 -114 0
30 63 -98 69 16 0
20 75 102 -23 -64 0
-115 68 71 10 84 0
-55 -118 -72 54 -21 0
-58 -4 -103 111 -67 0
-86 -82 40 29 94 0
-29 94 44 -42 28 0
-56 107 88 97 -41 0
-55 118 -72 54 21 0
111 67 -26 30 63 0
23 64 -76 91 -7 0
97 41 -85 32 -3 0
-104 11 -60 -86 -82 0
55 118 -72 -54 21 0
-45 89 -51 -19 -116 0
-59 18 -22 45 -89 0
-111 67 26 -30 -63 0
43 39 105 70 33 0
43 39 105 -70 -33 0
17 -48 -112 95 -93 0
-87 110 -62 53 114 0
-104 -11 60 -86 -82 0
-25 -6 -79 43 39 0
-9 37 -35 -34 78 0
-111 -67 26 -30 63 0
55 118 72 -54 -21 0
-73 -101 -13 -92 120 0
25 6 -79 -43 -39 0
70 33 117 15 109 0
-115 68 71 -10 -84 0
-15 109 24 20 -75 0
-17 48 -112 -95 93 0
29 94 44 42 28 0
-83 -5 57 -87 110 0
-25 6 79 43 39 0
59 -18 -22 45 -89 0
111 -67 -26 -30 63 0
-29 94 -44 -42 -28 0
9 37 -35 -34 -78 0
-30 63 98 -69 -16 0
-55 -118 -72 -54 21 0
-90 -50 -27 25 -6 0
-58 -4 -103 -111 67 0
95 -93 46 115 68 0
31 77 100 56 107 0
15 -109 -24 -20 -75 0
-70 -33 -117 15 -109 0
-42 -28 -119 58 -4 0
-104 -11 -60 -86 82 0
29 -94 -44 42 28 0
12 99 -2 104 11 0
-12 -99 2 -104 11 0
-87 110 62 53 -114 0
-111 67 26 30 63 0
83 5 57 87 -110 0
97 -41 -85 32 3 0
-23 -64 -76 -91 7 0
-59 18 22 45 89 0
19 -116 47 96 -108 0
-97 41 85 -32 3 0
95 93 -46 115 68 0
-34 -78 -106 -17 48 0
-70 -33 117 15 109 0
10 84 -14 73 -101 0
-15 109 -24 20 75 0
74 36 66 -59 -18 0
-54 21 65 9 37 0
90 -50 27 -25 6 0
-34 78 106 -17 48 0
91 7 -80 -12 -99 0
12 -99 -2 -104 11 0
87 110 62 -53 -114 0
42 -28 119 58 -4 0
90 50 -27 -25 6 0
10 84 14 73 101 0
9 -37 35 34 78 0
9 -37 -35 -34 78 0
56 -107 88 -97 41 0
-15 109 24 -20 75 0
10 84 -14 -73 101 0
34 -78 106 17 -48 0
29 94 -44 42 -28 0
-83 5 57 -87 -110 0
97 -41 -85 -32 -3 0
83 5 -57 -87 -110 0
-23 64 -76 -91 -7 0
115 68 -71 10 84 0
19 -116 -47 96 108 0
-104 -11 60 86 82 0
-92 -120 -113 -83 5 0
12 -99 2 -104 -11 0
96 108 -61 -90 -50 0
87 110 -62 -53 114 0
-87 110 62 -53 114 0
91 7 -80 12 99 0
-20 75 -102 -23 -64 0
-58 -4 103 111 67 0
31 -77 -100 56 107 0
-91 7 80 -12 -99 0
-54 21 -65 9 -37 0
49 38 -1 -31 -77 0
-29 -94 -44 -42 28 0
54 21 -65 -9 -37 0
42 -28 -119 58 4 0
-69 16 52 55 118 0
-73 -101 13 92 120 0
25 6 79 43 -39 0
73 101 13 92 120 0
87 -110 62 53 -114 0
-17 48 -112 95 -93 0
49 38 -1 31 77 0
56 -107 -88 -97 -41 0
86 82 -40 29 -94 0
86 -82 40 29 -94 0
-29 -94 44 42 28 0
19 -116 47 -96 108 0
-31 77 -100 -56 -107 0
58 4 -103 111 -67 0
-15 -109 24 -20 -75 0
9 37 35 -34 78 0
45 -89 51 19 -116 0
104 -11 60 -86 82 0
-10 -84 14 73 101 0
23 64 76 -91 -7 0
74 -36 -66 59 18 0
-12 -99 -2 -104 -11 0
32 -3 -81 -74 36 0
20 -75 102 23 -64 0
86 82 40 29 94 0
-49 -38 1 31 -77 0
-70 33 -117 15 109 0
-91 -7 80 12 -99 0
-92 120 -113 83 5 0
42 -28 -119 -58 -4 0
69 -16 52 -55 -118 0
-12 99 -2 -104 11 0
-42 -28 119 58 4 0
-49 -38 -1 31 77 0
-12 99 -2 104 -11 0
91 -7 -80 12 -99 0
92 -120 113 -83 5 0
73 -101 13 -92 120 0
-73 101 -13 92 120 0
30 -63 98 -69 -16 0
29 94 -44 -42 28 0
87 -110 -62 53 114 0
83 -5 57 -87 -110 0
-97 -41 85 32 3 0
25 -6 -79 43 -39 0
-29 94 44 42 -28 0
-17 -48 -112 -95 -93 0
-29 -94 44 -42 -28 0
111 67 26 -30 63 0
-30 -63 -98 -69 -16 0
-20 -75 -102 -23 64 0
104 11 60 86 82 0
83 5 -57 87 110 0
55 118 -72 54 -21 0
90 50 27 25 6 0
-49 -38 1 -31 77 0
-83 -5 -57 87 110 0
10 84 14 -73 -101 0
-19 -116 -47 96 -108 0
19 116 -47 96 -108 0
115 68 -71 -10 -84 0
56 107 88 97 41 0
-17 -48 112 95 -93 0
90 50 -27 25 -6 0
-10 84 -14 73 101 0
34 78 106 17 48 0
31 -77 100 56 -107 0
32 3 -81 -74 -36 0
59 -18 22 -45 -89 0
58 4 -103 -111 67 0
-111 67 -26 -30 63 0
-19 -116 -47 -96 108 0
31 -77 100 -56 107 0
23 64 -76 -91 7 0
43 39 -105 70 -33 0
12 99 2 -104 11 0
-74 -36 -66 59 -18 0
17 -48 112 95 93 0
104 -11 -60 86 82 0
30 63 98 -69 16 0
-91 -7 -80 12 99 0
-23 64 -76 91 7 0
25 6 -79 43 39 0
55 -118 72 -54 21 0
-90 50 -27 -25 -6 0
-69 -16 -52 55 118 0
-49 -38 -1 -31 -77 0
74 36 66 59 18 0
-97 -41 85 -32 -3 0
96 108 61 -90 50 0
-115 -68 -71 10 84 0
-86 -82 -40 29 -94 0
-23 -64 76 91 7 0
53 -114 -8 49 38 0
-58 4 103 -111 67 0
-111 -67 -26 -30 -63 0
-83 5 57 87 110 0
-12 99 2 -104 -11 0
45 -89 -51 19 116 0
-96 -108 61 -90 50 0
-17 -48 -112 95 93 0
-91 -7 80 -12 99 0
73 -101 -13 92 120 0
30 -63 -98 -69 16 0
-56 107 -88 97 41 0
-91 7 80 12 99 0
74 -36 66 -59 18 0
-45 -89 51 -19 -116 0
-53 114 -8 -49 -38 0
-10 84 -14 -73 -101 0
31 77 100 -56 -107 0
-32 -3 -81 -74 -36 0
-17 48 112 -95 -93 0
115 68 71 -10 84 0
-49 38 1 31 77 0
-31 -77 100 -56 -107 0
-59 18 22 -45 -89 0
-43 -39 105 -70 -33 0
-25 -6 -79 -43 -39 0
-115 68 -71 10 -84 0
-42 28 119 -58 4 0
45 -89 -51 -19 -116 0
53 -114 -8 -49 -38 0
69 -16 -52 55 -118 0
19 116 47 -96 -108 0
59 18 -22 -45 -89 0
43 -39 -105 -70 -33 0
-25 6 79 -43 -39 0
-55 118 -72 -54 -21 0
-23 64 76 -91 7 0
-23 -64 -76 91 -7 0
-111 -67 26 30 -63 0
-32 3 81 -74 -36 0
95 -93 -46 115 -68 0
12 99 -2 -104 -11 0
-9 -37 35 34 -78 0
-92 120 113 83 -5 0
87 110 62 53 114 0
96 -108 -61 90 -50 0
91 7 80 12 -99 0
-95 93 -46 115 -68 0
92 120 -113 -83 5 0
-19 116 -47 -96 -108 0
15 109 -24 -20 75 0
12 99 2 104 -11 0
96 -108 61 90 50 0
-31 77 -100 56 107 0
20 75 -102 -23 64 0
-34 -78 106 17 48 0
-90 50 27 -25 6 0
-90 -50 27 -25 -6 0
-30 -63 -98 69 16 0
104 11 60 -86 -82 0
15 109 24 20 75 0
-59 -18 22 -45 89 0
90 -50 27 25 -6 0
-91 7 -80 12 -99 0
97 41 85 32 3 0
-86 -82 40 -29 -94 0
-59 18 -22 -45 89 0
115 -68 71 10 84 0
56 -107 -88 97 41 0
-97 41 -85 32 3 0
-104 -11 -60 86 -82 0
-30 63 98 69 16 0
-111 67 -26 30 -63 0
-45 -89 -51 -19 116 0
17 -48 -112 -95 93 0
-25 6 -79 43 -39 0
10 -84 -14 73 101 0
-17 48 112 95 93 0
53 114 8 49 38 0
23 -64 -76 -91 -7 0
-86 -82 -40 -29 94 0
-90 50 -27 25 6 0
-74 36 66 -59 18 0
-32 -3 -81 74 36 0
111 -67 26 30 63 0
-87 -110 -62 53 -114 0
-74 36 -66 59 18 0
95 93 -46 -115 -68 0
86 82 40 -29 -94 0
-70 33 117 15 -109 0
70 -33 117 -15 109 0
-96 108 61 90 50 0
-43 -39 -105 -70 33 0
-49 38 1 -31 -77 0
15 109 -24 20 -75 0
-73 101 -13 -92 -120 0
-17 -48 112 -95 93 0
70 33 -117 -15 109 0
-20 75 102 23 -64 0
49 -38 1 -31 -77 0
-70 -33 117 -15 -109 0
115 -68 71 -10 -84 0
23 64 76 91 7 0
-32 3 -81 -74 36 0
86 -82 40 -29 94 0
-45 89 51 19 -116 0
92 120 113 83 5 0
-90 50 27 25 -6 0
45 89 -51 19 -116 0
-23 64 76 91 -7 0
-32 3 81 74 36 0
32 -3 81 -74 -36 0
83 -5 -57 87 -110 0
70 33 -117 15 -109 0
-54 -21 65 9 -37 0
-104 11 60 -86 82 0
-95 -93 -46 -115 -68 0
-74 36 66 59 -18 0
91 7 80 -12 99 0
-95 93 -46 -115 68 0
19 116 -47 -96 108 0
-83 5 -57 -87 110 0
-32 -3 81 -74 36 0
-92 120 -113 -83 -5 0
-42 -28 -119 -58 4 0
87 -110 62 -53 114 0
97 41 -85 -32 3 0
30 -63 98 69 16 0
-59 -18 -22 -45 -89 0
-32 3 -81 74 -36 0
-90 -50 -27 -25 6 0
104 11 -60 -86 82 0
-87 110 -62 -53 -114 0
58 -4 -103 -111 -67 0
54 21 -65 9 37 0
